 ! --------------------------------------------------- CP Optimizer 22.1.1.0 --
 ! Satisfiability problem - 26340 variables, 231335 constraints
 ! Presolve      : 16200 extractables eliminated
 ! TimeLimit            = 3600
 ! Workers              = 1
 ! Initial process time : 2.25s (2.25s extraction + 0.01s propagation)
 !  . Log search space  : 272226.6 (before), 272226.6 (after)
 !  . Memory usage      : 182.5 MB (before), 182.5 MB (after)
 ! Using sequential search.
 ! ----------------------------------------------------------------------------
 !               Branches  Non-fixed            Branch decision
                     1007      25009        F          presenceOf(copy_bus_parking:28_0)
                     2000      10575                   presenceOf(copy_bus_parking:0_252)
                     3000       9464                   presenceOf(copy_lane_parking:1_168)
                     4000       9438                  !presenceOf(copy_bus_parking:23_268)
                     5000       9438                  !presenceOf(copy_trips:0_268)
                     6000       9458                   presenceOf(copy_lane_parking:3_11)
                     7000       9371                   presenceOf(copy_trips:26_113)
                     8000       9464                   presenceOf(copy_trips:10_7)
                     9000      17587                   presenceOf(copy_trips:16_90)
                    10000       9458                   presenceOf(copy_lane_parking:3_231)
                    11000      11888                   presenceOf(copy_trips:0_163)
                    12000      15819                   presenceOf(copy_lane_parking:0_49)
                    13000      16953        F          presenceOf(copy_trips:5_269)
                    14000      12034                   presenceOf(copy_lane_parking:0_97)
                    15000      12110                   presenceOf(copy_trips:4_256)
                    16000      15653                   presenceOf(copy_trips:7_4)
                    17000      15653                   presenceOf(copy_lane_parking:3_133)
                    18000      18606        F          presenceOf(copy_trips:27_20)
                    19000       9464                   presenceOf(copy_trips:3_7)
                    20000      16953                  !presenceOf(copy_bus_parking:17_266)
 ! Time = 19.46s, Average fail depth = 336, Memory usage = 552.2 MB
 !               Branches  Non-fixed            Branch decision
                    21000      16953                  !presenceOf(copy_bus_parking:21_266)
                    22000      16953        F         !presenceOf(copy_bus_parking:22_266)
                    23000      16953                  !presenceOf(copy_bus_parking:23_266)
                    24000       9454        F         !presenceOf(copy_trips:7_9)
                    25000       9461        F          presenceOf(copy_bus_parking:9_268)
                    26000       9355                   presenceOf(copy_lane_parking:4_22)
                    27000      12777        F          presenceOf(copy_trips:19_24)
                    28000      13393                   presenceOf(copy_lane_parking:3_122)
                    29000      16944                  !presenceOf(copy_trips:16_266)
                    30000      13274        F          presenceOf(copy_trips:16_9)
                    31000      18279                   presenceOf(copy_lane_parking:3_39)
                    32000      17009                  !presenceOf(copy_bus_parking:17_266)
                    33000      17006        F         !presenceOf(copy_bus_parking:29_266)
                    34000      17006        F          presenceOf(copy_trips:23_264)
                    35000      17006        F          presenceOf(copy_bus_parking:11_0)
                    36000      14836        F          presenceOf(copy_bus_parking:3_2)
                    37000      14762                  !presenceOf(copy_trips:13_3)
                    38000      14762        F          presenceOf(copy_bus_parking:11_2)
                    39000      14660                   presenceOf(copy_trips:12_10)
                    40000      14660                  !presenceOf(copy_trips:17_16)
 ! Time = 33.05s, Average fail depth = 341, Memory usage = 552.2 MB
 !               Branches  Non-fixed            Branch decision
                    41000      16953        F          presenceOf(copy_trips:13_269)
                    42000      16953        F          presenceOf(copy_trips:16_269)
                    43000      16953        F          presenceOf(copy_trips:9_269)
                    44000      16953                   presenceOf(copy_lane_parking:2_211)
                    45000      17018        F          presenceOf(copy_trips:8_2)
                    46000      16944                  !presenceOf(copy_bus_parking:5_266)
                    47000      16944                  !presenceOf(copy_bus_parking:23_269)
                    48000      16959                   presenceOf(copy_lane_parking:3_87)
                    49000      18640                   presenceOf(copy_lane_parking:1_106)
                    50000      14435                   presenceOf(copy_bus_parking:25_168)
                    51000      16039                  !presenceOf(copy_trips:29_269)
                    52000      14619                   presenceOf(copy_trips:3_69)
                    53000      11525                   presenceOf(copy_lane_parking:2_47)
                    54000      12768                   presenceOf(copy_trips:21_174)
                    55000       9266                   presenceOf(copy_lane_parking:0_263)
                    56000      20516        F          presenceOf(copy_trips:3_0)
                    57000      16950                  !presenceOf(copy_bus_parking:17_266)
                    58000      16935        F          presenceOf(copy_bus_parking:11_46)
                    59000      19043        F          presenceOf(copy_bus_parking:23_19)
                    60000      19043                   presenceOf(copy_lane_parking:1_14)
 ! Time = 48.44s, Average fail depth = 330, Memory usage = 554.3 MB
 !               Branches  Non-fixed            Branch decision
                    61000       9467                   presenceOf(copy_lane_parking:2_38)
                    62000      16938                   presenceOf(copy_lane_parking:4_127)
                    63000      13211                  !presenceOf(copy_bus_parking:10_45)
                    64000      13211                  !presenceOf(copy_bus_parking:17_45)
                    65000      13211                  !presenceOf(copy_trips:14_16)
                    66000      13211            on charge:10_41
                    67000      18357                  !presenceOf(copy_bus_parking:14_20)
                    68000      18354                  !presenceOf(copy_trips:11_25)
                    69000      18354                  !presenceOf(copy_trips:24_24)
                    70000      18354        F          presenceOf(copy_trips:27_24)
                    71000      18475                  !presenceOf(copy_trips:25_24)
                    72000      18475        F          presenceOf(copy_bus_parking:1_16)
                    73000      18446        F          presenceOf(copy_trips:22_24)
                    74000      18360                  !presenceOf(copy_trips:1_24)
                    75000      18357        F          presenceOf(copy_trips:20_24)
                    76000      18357        F          presenceOf(copy_trips:16_24)
                    77000      18357        F          presenceOf(copy_bus_parking:17_16)
                    78000      18475                  !presenceOf(copy_bus_parking:28_16)
                    79000      18475        F          presenceOf(copy_trips:29_19)
                    80000      16941                  !presenceOf(copy_trips:29_269)
 ! Time = 62.75s, Average fail depth = 336, Memory usage = 554.3 MB
 !               Branches  Non-fixed            Branch decision
                    81000      15967                   presenceOf(copy_trips:18_5)
                    82000      15967                   presenceOf(copy_trips:11_198)
                    83000      16947                  !presenceOf(copy_trips:5_73)
                    84000      18348                   presenceOf(copy_trips:24_20)
                    85000       9452                  !presenceOf(copy_bus_parking:26_182)
                    86000       9452        F          presenceOf(copy_bus_parking:9_182)
                    87000       9452                  !presenceOf(copy_bus_parking:2_182)
                    88000       9452                  !presenceOf(copy_trips:22_19)
                    89000      20503                  !presenceOf(copy_bus_parking:0_51)
                    90000      20367                  !presenceOf(copy_bus_parking:27_51)
                    91000      20928        F          presenceOf(copy_trips:16_0)
                    92000      18963                   presenceOf(copy_lane_parking:2_178)
                    93000      16938        F          presenceOf(copy_trips:18_59)
                    94000      18401                   presenceOf(copy_bus_parking:7_197)
                    95000      17127        F          presenceOf(copy_bus_parking:15_264)
                    96000      17127                  !presenceOf(copy_bus_parking:3_195)
                    97000      17127        F          presenceOf(copy_trips:0_198)
                    98000      17127                  !presenceOf(copy_bus_parking:19_195)
                    99000      17127        F          presenceOf(copy_bus_parking:17_264)
                     100k      17127        F          presenceOf(copy_bus_parking:19_264)
 ! Time = 75.21s, Average fail depth = 338, Memory usage = 554.3 MB
 !               Branches  Non-fixed            Branch decision
                     101k      17124                  !presenceOf(copy_bus_parking:4_195)
                     102k      17124        F          presenceOf(copy_bus_parking:2_264)
                     103k      17124                  !presenceOf(copy_bus_parking:15_195)
                     104k      17124                  !presenceOf(copy_bus_parking:12_195)
                     105k      17221        F          presenceOf(copy_trips:14_198)
                     106k      17124        F          presenceOf(copy_bus_parking:19_264)
                     107k      17124                   presenceOf(copy_lane_parking:4_24)
                     108k      10772                   presenceOf(copy_trips:5_248)
                     109k       9359                   presenceOf(copy_lane_parking:1_38)
                     110k      23478                   presenceOf(copy_lane_parking:3_224)
                     111k      16938        F          presenceOf(copy_bus_parking:23_48)
                     112k      18556                  !presenceOf(copy_bus_parking:16_25)
                     113k      18556                   presenceOf(copy_trips:10_24)
                     114k      18556        F          presenceOf(copy_trips:3_16)
                     115k      18668        F          presenceOf(copy_bus_parking:24_28)
                     116k      19468                  !presenceOf(copy_trips:21_33)
                     117k      19468        F          presenceOf(copy_bus_parking:27_28)
                     118k      19468        F         !presenceOf(copy_trips:23_33)
                     119k      19468        F          presenceOf(copy_bus_parking:16_28)
                     120k      19468                  !presenceOf(copy_trips:10_33)
 ! Time = 86.80s, Average fail depth = 340, Memory usage = 554.3 MB
 !               Branches  Non-fixed            Branch decision
                     121k      19468        F          presenceOf(copy_bus_parking:17_28)
                     122k      19468                  !presenceOf(copy_trips:19_33)
                     123k      19468        F          presenceOf(copy_bus_parking:24_28)
                     124k      19468                  !presenceOf(copy_trips:21_33)
                     125k      19468        F          presenceOf(copy_bus_parking:8_28)
                     126k      19468        F         !presenceOf(copy_trips:23_33)
                     127k      19468                  !presenceOf(copy_trips:10_33)
                     128k      19468        F         !presenceOf(copy_trips:18_74)
                     129k      19667                   presenceOf(copy_bus_parking:7_137)
                     130k      13112        F          presenceOf(copy_trips:14_7)
                     131k      16944        F          presenceOf(copy_trips:9_266)
                     132k      16935                   presenceOf(copy_bus_parking:22_70)
                     133k      18465        F          presenceOf(copy_bus_parking:1_27)
                     134k      18576                   presenceOf(copy_lane_parking:3_59)
                     135k      17008        F          presenceOf(copy_trips:0_0)
                     136k      22770                   presenceOf(copy_bus_parking:2_248)
                     137k      16953                   presenceOf(copy_lane_parking:2_35)
                     138k      16941        F          presenceOf(copy_trips:15_266)
                     139k      16947        F          presenceOf(copy_trips:19_266)
                     140k      16996        F          presenceOf(copy_trips:3_266)
 ! Time = 101.17s, Average fail depth = 339, Memory usage = 554.3 MB
 !               Branches  Non-fixed            Branch decision
                     141k      16950                  !presenceOf(copy_trips:1_20)
                     142k      18582        F          presenceOf(copy_trips:15_0)
                     143k      18585                   presenceOf(copy_trips:3_19)
                     144k      18582                   presenceOf(copy_bus_parking:14_16)
                     145k      18585        F          presenceOf(copy_trips:23_24)
                     146k      18500                  !presenceOf(copy_trips:27_25)
                     147k      18500        F          presenceOf(copy_bus_parking:17_16)
                     148k      18503        F          presenceOf(copy_bus_parking:22_16)
                     149k      18497        F          presenceOf(copy_bus_parking:19_16)
                     150k      18494        F          presenceOf(copy_bus_parking:26_16)
                     151k      18500        F         !presenceOf(copy_trips:18_25)
                     152k      18500                  !presenceOf(copy_trips:26_25)
                     153k      18494                  !presenceOf(copy_trips:1_25)
                     154k      18494                   presenceOf(copy_trips:13_6)
                     155k      22880                   presenceOf(copy_trips:17_4)
                     156k      22883                   presenceOf(copy_trips:5_4)
                     157k      22880        F         !presenceOf(copy_bus_parking:1_2)
                     158k      16944            on charge:2_1
                     159k      17909                  !presenceOf(copy_bus_parking:16_25)
                     160k      16228        F          presenceOf(copy_trips:22_97)
 ! Time = 115.41s, Average fail depth = 336, Memory usage = 554.4 MB
 !               Branches  Non-fixed            Branch decision
                     161k       6036                  !presenceOf(copy_trips:29_208)
                     162k       1745        F         !presenceOf(copy_trips:2_217)
                     163k       1157                  !presenceOf(copy_trips:11_257)
                     164k       1157        F          presenceOf(copy_trips:8_266)
                     165k      16997                   presenceOf(copy_lane_parking:2_147)
                     166k       9301        F          presenceOf(copy_trips:4_182)
                     167k       9301                   presenceOf(copy_trips:18_193)
                     168k      16926        F          presenceOf(copy_bus_parking:6_269)
                     169k      16944        F          presenceOf(copy_bus_parking:2_2)
                     170k      11885        F          presenceOf(copy_bus_parking:14_40)
                     171k       9294        F          presenceOf(copy_bus_parking:19_182)
                     172k       9291                   presenceOf(copy_bus_parking:18_237)
                     173k      16941                  !presenceOf(copy_trips:13_269)
                     174k      16941        F          presenceOf(copy_trips:12_269)
                     175k      16938                  !presenceOf(copy_trips:24_264)
                     176k       9455                  !presenceOf(copy_bus_parking:3_182)
                     177k       9455                   presenceOf(copy_lane_parking:3_234)
                     178k      12063                   presenceOf(copy_bus_parking:7_223)
                     179k       9287                  !presenceOf(copy_trips:29_198)
                     180k      11824                  !presenceOf(copy_trips:19_0)
 ! Time = 127.53s, Average fail depth = 347, Memory usage = 587.4 MB
 !               Branches  Non-fixed            Branch decision
                     181k      18861                  !presenceOf(copy_trips:7_2)
                     182k      18680                  !presenceOf(copy_trips:24_19)
                     183k      18510        F         !presenceOf(start_parking:22)
                     184k      12171                  !presenceOf(copy_bus_parking:28_40)
                     185k      12171                  !presenceOf(copy_bus_parking:0_269)
                     186k      16932                  !presenceOf(copy_bus_parking:20_266)
                     187k      16950        F          presenceOf(copy_bus_parking:2_198)
                     188k      17033                  !presenceOf(copy_trips:19_30)
                     189k      19040                   presenceOf(copy_trips:11_61)
                     190k      18443                   presenceOf(copy_trips:14_20)
                     191k      16959                  !presenceOf(copy_trips:8_269)
                     192k      16959                  !presenceOf(copy_trips:21_269)
                     193k      16959        F          presenceOf(copy_trips:5_269)
                     194k      16959                   presenceOf(copy_lane_parking:3_95)
                     195k      15458        F          presenceOf(copy_bus_parking:4_2)
                     196k      15458                   presenceOf(copy_lane_parking:4_68)
                     197k      17018        F          presenceOf(copy_bus_parking:0_264)
                     198k      17012        F          presenceOf(copy_bus_parking:3_264)
                     199k      17012                  !presenceOf(copy_bus_parking:12_266)
                     200k      16929        F          presenceOf(copy_bus_parking:21_266)
 ! Time = 140.91s, Average fail depth = 342, Memory usage = 587.4 MB
 !               Branches  Non-fixed            Branch decision
                     201k      16914        F          presenceOf(copy_trips:1_16)
                     202k      18620                  !presenceOf(copy_trips:13_20)
                     203k      18673                  !presenceOf(copy_trips:29_20)
                     204k      18622                  !presenceOf(copy_bus_parking:29_24)
                     205k      18510        F          presenceOf(copy_trips:17_76)
                     206k      18510                  !presenceOf(copy_trips:24_69)
                     207k      18510        F          presenceOf(copy_trips:5_69)
                     208k      18510                  !presenceOf(copy_bus_parking:3_19)
                     209k      18687        F          presenceOf(copy_bus_parking:23_20)
                     210k      18687                  !presenceOf(copy_trips:6_0)
                     211k      18687        F          presenceOf(copy_bus_parking:25_20)
                     212k      18687                  !presenceOf(copy_trips:19_0)
                     213k      18563        F          presenceOf(copy_trips:11_16)
                     214k      18563        F          presenceOf(copy_bus_parking:20_20)
                     215k      18563                  !presenceOf(copy_trips:6_0)
                     216k      18687        F          presenceOf(copy_bus_parking:25_27)
                     217k      18805        F          presenceOf(copy_bus_parking:11_20)
                     218k      18684                  !presenceOf(copy_bus_parking:11_19)
                     219k      18684                  !presenceOf(copy_trips:0_33)
                     220k      18687        F          presenceOf(copy_bus_parking:10_27)
 ! Time = 157.96s, Average fail depth = 339, Memory usage = 587.4 MB
 !               Branches  Non-fixed            Branch decision
                     221k      12467                   presenceOf(copy_bus_parking:20_237)
                     222k       9458                  !presenceOf(copy_trips:29_265)
                     223k       9458        F          presenceOf(copy_trips:6_268)
                     224k       9458        F          presenceOf(copy_trips:22_268)
                     225k       9458        F          presenceOf(copy_trips:2_268)
                     226k       9458        F          presenceOf(copy_trips:14_268)
                     227k       9458                  !presenceOf(copy_trips:8_268)
                     228k       9458        F          presenceOf(copy_trips:13_268)
                     229k       9458        F          presenceOf(copy_trips:17_268)
                     230k       9458        F          presenceOf(copy_trips:12_268)
                     231k       9458        F          presenceOf(copy_trips:14_268)
                     232k       9458        F          presenceOf(copy_trips:9_268)
                     233k       9458        F          presenceOf(copy_trips:10_268)
                     234k       9458                   presenceOf(copy_lane_parking:1_245)
                     235k      11879        F          presenceOf(copy_trips:6_60)
                     236k      18707                  !presenceOf(copy_trips:17_3)
                     237k      18270                  !presenceOf(copy_trips:26_81)
                     238k      18273        F          presenceOf(copy_trips:28_81)
                     239k      18270        F          presenceOf(copy_trips:28_81)
                     240k      18270                  !presenceOf(copy_trips:18_81)
 ! Time = 165.31s, Average fail depth = 343, Memory usage = 587.4 MB
 !               Branches  Non-fixed            Branch decision
                     241k      18270                  !presenceOf(copy_trips:12_81)
                     242k      18270        F          presenceOf(copy_trips:26_81)
                     243k      18270        F         !presenceOf(copy_trips:26_81)
                     244k      18270        F          presenceOf(copy_trips:11_81)
                     245k      18275        F          presenceOf(copy_trips:26_81)
                     246k      18275        F          presenceOf(copy_trips:26_81)
                     247k      18275        F         !presenceOf(copy_trips:18_81)
                     248k      18275        F          presenceOf(copy_trips:18_81)
                     249k      18275                   presenceOf(copy_lane_parking:4_135)
                     250k      13277        F          presenceOf(copy_trips:1_26)
                     251k      13277                  !presenceOf(copy_trips:10_0)
                     252k      12818                  !presenceOf(copy_trips:28_26)
                     253k      12818                  !presenceOf(copy_trips:29_26)
                     254k      12818        F          presenceOf(copy_bus_parking:29_25)
                     255k      12818                  !presenceOf(copy_trips:29_26)
                     256k      12875                  !presenceOf(copy_trips:7_26)
                     257k      12875                  !presenceOf(copy_trips:9_26)
                     258k      12875        F         !presenceOf(copy_trips:1_26)
                     259k      12935                  !presenceOf(copy_trips:1_26)
                     260k      12875                   presenceOf(copy_bus_parking:24_25)
 ! Time = 180.13s, Average fail depth = 341, Memory usage = 587.4 MB
 !               Branches  Non-fixed            Branch decision
                     261k      12875                  !presenceOf(copy_trips:5_26)
                     262k      12875                  !presenceOf(copy_trips:7_26)
                     263k      12875                  !presenceOf(copy_trips:5_26)
                     264k      12875                  !presenceOf(copy_trips:7_26)
                     265k      12818                  !presenceOf(copy_trips:1_26)
                     266k      12818                   presenceOf(copy_bus_parking:26_25)
                     267k      12818        F         !presenceOf(copy_trips:17_26)
                     268k      12818        F         !presenceOf(copy_trips:1_26)
                     269k      12935                  !presenceOf(copy_trips:1_26)
                     270k      12875                  !presenceOf(copy_trips:29_26)
                     271k      12875                  !presenceOf(copy_trips:1_26)
                     272k      12821                  !presenceOf(copy_trips:23_26)
                     273k      12818                  !presenceOf(copy_trips:29_26)
                     274k      12818                  !presenceOf(copy_trips:7_26)
                     275k      12818        F          presenceOf(copy_trips:1_26)
                     276k      12875                  !presenceOf(copy_trips:3_0)
                     277k      12878                  !presenceOf(copy_trips:5_26)
                     278k      12875        F          presenceOf(copy_bus_parking:7_25)
                     279k      13277        F          presenceOf(copy_bus_parking:6_25)
                     280k      13277                  !presenceOf(copy_bus_parking:4_25)
 ! Time = 201.50s, Average fail depth = 346, Memory usage = 587.4 MB
 !               Branches  Non-fixed            Branch decision
                     281k      13277        F          presenceOf(copy_bus_parking:13_25)
                     282k      12875        F          presenceOf(copy_trips:16_26)
                     283k      12875                  !presenceOf(copy_bus_parking:26_25)
                     284k      12875                   presenceOf(copy_bus_parking:14_25)
                     285k      13277        F         !presenceOf(copy_trips:1_26)
                     286k      13277                  !presenceOf(copy_trips:10_24)
                     287k      12875                  !presenceOf(copy_bus_parking:6_25)
                     288k      12875        F          presenceOf(copy_trips:23_26)
                     289k      12875                   presenceOf(copy_bus_parking:14_25)
                     290k      13277        F         !presenceOf(copy_trips:1_26)
                     291k      13277        F          presenceOf(copy_trips:9_0)
                     292k      12806                   presenceOf(copy_bus_parking:14_25)
                     293k      12809                  !presenceOf(copy_trips:5_26)
                     294k      12806                   presenceOf(copy_bus_parking:24_25)
                     295k      12806                  !presenceOf(copy_trips:28_26)
                     296k      12866                  !presenceOf(copy_bus_parking:8_25)
                     297k      12863        F          presenceOf(copy_trips:23_26)
                     298k      12863        F          presenceOf(copy_bus_parking:19_25)
                     299k      12863                  !presenceOf(copy_trips:7_26)
                     300k      12863                  !presenceOf(copy_trips:29_26)
 ! Time = 221.73s, Average fail depth = 350, Memory usage = 587.4 MB
 !               Branches  Non-fixed            Branch decision
                     301k      12866        F         !presenceOf(copy_bus_parking:0_0)
                     302k      18459                  !presenceOf(copy_trips:8_42)
                     303k      19126                   presenceOf(copy_lane_parking:0_21)
                     304k      23682                  !presenceOf(copy_bus_parking:7_1)
                     305k      23682                  !presenceOf(copy_bus_parking:4_1)
                     306k      23682                  !presenceOf(copy_bus_parking:23_1)
                     307k      23682        F          presenceOf(copy_bus_parking:13_2)
                     308k      23682        F          presenceOf(copy_bus_parking:13_2)
                     309k      23682        F          presenceOf(copy_bus_parking:1_1)
                     310k      23682                  !presenceOf(copy_bus_parking:3_1)
                     311k      23682        F          presenceOf(copy_bus_parking:2_2)
                     312k      23682        F         !presenceOf(copy_bus_parking:2_2)
                     313k      23682        F          presenceOf(copy_bus_parking:15_2)
                     314k      23201                   presenceOf(copy_trips:3_7)
                     315k      23201                  !presenceOf(copy_bus_parking:20_8)
                     316k      23201                  !presenceOf(copy_bus_parking:20_8)
                     317k      23201                  !presenceOf(copy_bus_parking:18_8)
                     318k      23201        F          presenceOf(copy_bus_parking:15_8)
                     319k      23201        F         !presenceOf(copy_bus_parking:10_8)
                     320k      23201        F          presenceOf(copy_bus_parking:15_2)
 ! Time = 234.82s, Average fail depth = 345, Memory usage = 587.4 MB
 !               Branches  Non-fixed            Branch decision
                     321k      23201                   presenceOf(copy_trips:9_7)
                     322k      23201        F          presenceOf(copy_bus_parking:1_8)
                     323k      23201        F          presenceOf(copy_bus_parking:15_2)
                     324k      23201                  !presenceOf(copy_bus_parking:13_10)
                     325k      23201        F          presenceOf(copy_bus_parking:13_8)
                     326k      23201                  !presenceOf(copy_bus_parking:4_8)
                     327k      23201        F          presenceOf(copy_bus_parking:20_10)
                     328k      23201                  !presenceOf(copy_bus_parking:1_8)
                     329k      23201                  !presenceOf(copy_bus_parking:4_8)
                     330k      23201        F          presenceOf(copy_bus_parking:15_2)
                     331k      23201                  !presenceOf(copy_bus_parking:20_10)
                     332k      23201        F          presenceOf(copy_bus_parking:1_10)
                     333k      23201        F          presenceOf(copy_trips:11_7)
                     334k      23201                  !presenceOf(copy_bus_parking:18_10)
                     335k      23201                  !presenceOf(copy_bus_parking:18_8)
                     336k      23201        F         !presenceOf(copy_bus_parking:19_8)
                     337k      23201        F         !presenceOf(copy_bus_parking:13_2)
                     338k      23201                  !presenceOf(copy_bus_parking:1_8)
                     339k      23201                  !presenceOf(copy_bus_parking:1_8)
                     340k      23201                  !presenceOf(copy_bus_parking:2_8)
 ! Time = 242.86s, Average fail depth = 341, Memory usage = 587.4 MB
 !               Branches  Non-fixed            Branch decision
                     341k      23201                  !presenceOf(copy_bus_parking:3_8)
                     342k      23201        F          presenceOf(copy_trips:5_7)
                     343k      23201                  !presenceOf(copy_bus_parking:8_8)
                     344k      23201        F          presenceOf(copy_bus_parking:15_2)
                     345k      23201        F          presenceOf(copy_bus_parking:8_8)
                     346k      23201                  !presenceOf(copy_bus_parking:1_8)
                     347k      23201                   presenceOf(copy_bus_parking:8_8)
                     348k      23201                  !presenceOf(copy_bus_parking:1_10)
                     349k      23201        F          presenceOf(copy_trips:15_7)
                     350k      23201                   presenceOf(copy_bus_parking:26_8)
                     351k      23201                  !presenceOf(copy_bus_parking:4_8)
                     352k      23201        F          presenceOf(copy_trips:20_7)
                     353k      23201        F          presenceOf(copy_bus_parking:19_8)
                     354k      23201                  !presenceOf(copy_bus_parking:7_8)
                     355k      18437        F          presenceOf(copy_trips:10_77)
                     356k      18437                  !presenceOf(copy_trips:6_77)
                     357k      16005                  !presenceOf(copy_trips:1_27)
                     358k      18272                  !presenceOf(copy_trips:23_45)
                     359k      18443        F          presenceOf(copy_trips:20_37)
                     360k      12037        F          presenceOf(copy_trips:10_40)
 ! Time = 253.25s, Average fail depth = 337, Memory usage = 587.4 MB
 !               Branches  Non-fixed            Branch decision
                     361k      12037        F          presenceOf(copy_bus_parking:5_40)
                     362k      14072           1122  = startOf(charge:5_66)
                     363k       5372           3338  = startOf(charge:3_183)
 *                   363k  255.71s                   -
 ! ----------------------------------------------------------------------------
 ! Search completed, 1 solution found.
 ! ----------------------------------------------------------------------------
 ! Number of branches     : 363662
 ! Number of fails        : 155406
 ! Total memory usage     : 630.2 MB (614.1 MB CP Optimizer + 16.1 MB Concert)
 ! Time spent in solve    : 255.71s (253.46s engine + 2.25s extraction)
 ! Search speed (br. / s) : 1434.8
 ! ----------------------------------------------------------------------------
